certificates/rado_a15_c10_N101.cnf
c Rad2 upper bound instance: x1 + 15*x2 - x3 = 10, interval [1,101]
p cnf 101 714
1 6 0
-1 -6 0
1 2 21 0
-1 -2 -21 0
1 3 36 0
-1 -3 -36 0
1 4 51 0
-1 -4 -51 0
1 5 66 0
-1 -5 -66 0
1 6 81 0
-1 -6 -81 0
1 7 96 0
-1 -7 -96 0
1 2 7 0
-1 -2 -7 0
2 22 0
-2 -22 0
2 3 37 0
-2 -3 -37 0
2 4 52 0
-2 -4 -52 0
2 5 67 0
-2 -5 -67 0
2 6 82 0
-2 -6 -82 0
2 7 97 0
-2 -7 -97 0
1 3 8 0
-1 -3 -8 0
2 3 23 0
-2 -3 -23 0
3 38 0
-3 -38 0
3 4 53 0
-3 -4 -53 0
3 5 68 0
-3 -5 -68 0
3 6 83 0
-3 -6 -83 0
3 7 98 0
-3 -7 -98 0
1 4 9 0
-1 -4 -9 0
2 4 24 0
-2 -4 -24 0
3 4 39 0
-3 -4 -39 0
4 54 0
-4 -54 0
4 5 69 0
-4 -5 -69 0
4 6 84 0
-4 -6 -84 0
4 7 99 0
-4 -7 -99 0
1 5 10 0
-1 -5 -10 0
2 5 25 0
-2 -5 -25 0
3 5 40 0
-3 -5 -40 0
4 5 55 0
-4 -5 -55 0
5 70 0
-5 -70 0
5 6 85 0
-5 -6 -85 0
5 7 100 0
-5 -7 -100 0
1 6 11 0
-1 -6 -11 0
2 6 26 0
-2 -6 -26 0
3 6 41 0
-3 -6 -41 0
4 6 56 0
-4 -6 -56 0
5 6 71 0
-5 -6 -71 0
6 86 0
-6 -86 0
6 7 101 0
-6 -7 -101 0
1 7 12 0
-1 -7 -12 0
2 7 27 0
-2 -7 -27 0
3 7 42 0
-3 -7 -42 0
4 7 57 0
-4 -7 -57 0
5 7 72 0
-5 -7 -72 0
6 7 87 0
-6 -7 -87 0
1 8 13 0
-1 -8 -13 0
2 8 28 0
-2 -8 -28 0
3 8 43 0
-3 -8 -43 0
4 8 58 0
-4 -8 -58 0
5 8 73 0
-5 -8 -73 0
6 8 88 0
-6 -8 -88 0
1 9 14 0
-1 -9 -14 0
2 9 29 0
-2 -9 -29 0
3 9 44 0
-3 -9 -44 0
4 9 59 0
-4 -9 -59 0
5 9 74 0
-5 -9 -74 0
6 9 89 0
-6 -9 -89 0
1 10 15 0
-1 -10 -15 0
2 10 30 0
-2 -10 -30 0
3 10 45 0
-3 -10 -45 0
4 10 60 0
-4 -10 -60 0
5 10 75 0
-5 -10 -75 0
6 10 90 0
-6 -10 -90 0
1 11 16 0
-1 -11 -16 0
2 11 31 0
-2 -11 -31 0
3 11 46 0
-3 -11 -46 0
4 11 61 0
-4 -11 -61 0
5 11 76 0
-5 -11 -76 0
6 11 91 0
-6 -11 -91 0
1 12 17 0
-1 -12 -17 0
2 12 32 0
-2 -12 -32 0
3 12 47 0
-3 -12 -47 0
4 12 62 0
-4 -12 -62 0
5 12 77 0
-5 -12 -77 0
6 12 92 0
-6 -12 -92 0
1 13 18 0
-1 -13 -18 0
2 13 33 0
-2 -13 -33 0
3 13 48 0
-3 -13 -48 0
4 13 63 0
-4 -13 -63 0
5 13 78 0
-5 -13 -78 0
6 13 93 0
-6 -13 -93 0
1 14 19 0
-1 -14 -19 0
2 14 34 0
-2 -14 -34 0
3 14 49 0
-3 -14 -49 0
4 14 64 0
-4 -14 -64 0
5 14 79 0
-5 -14 -79 0
6 14 94 0
-6 -14 -94 0
1 15 20 0
-1 -15 -20 0
2 15 35 0
-2 -15 -35 0
3 15 50 0
-3 -15 -50 0
4 15 65 0
-4 -15 -65 0
5 15 80 0
-5 -15 -80 0
6 15 95 0
-6 -15 -95 0
1 16 21 0
-1 -16 -21 0
2 16 36 0
-2 -16 -36 0
3 16 51 0
-3 -16 -51 0
4 16 66 0
-4 -16 -66 0
5 16 81 0
-5 -16 -81 0
6 16 96 0
-6 -16 -96 0
1 17 22 0
-1 -17 -22 0
2 17 37 0
-2 -17 -37 0
3 17 52 0
-3 -17 -52 0
4 17 67 0
-4 -17 -67 0
5 17 82 0
-5 -17 -82 0
6 17 97 0
-6 -17 -97 0
1 18 23 0
-1 -18 -23 0
2 18 38 0
-2 -18 -38 0
3 18 53 0
-3 -18 -53 0
4 18 68 0
-4 -18 -68 0
5 18 83 0
-5 -18 -83 0
6 18 98 0
-6 -18 -98 0
1 19 24 0
-1 -19 -24 0
2 19 39 0
-2 -19 -39 0
3 19 54 0
-3 -19 -54 0
4 19 69 0
-4 -19 -69 0
5 19 84 0
-5 -19 -84 0
6 19 99 0
-6 -19 -99 0
1 20 25 0
-1 -20 -25 0
2 20 40 0
-2 -20 -40 0
3 20 55 0
-3 -20 -55 0
4 20 70 0
-4 -20 -70 0
5 20 85 0
-5 -20 -85 0
6 20 100 0
-6 -20 -100 0
1 21 26 0
-1 -21 -26 0
2 21 41 0
-2 -21 -41 0
3 21 56 0
-3 -21 -56 0
4 21 71 0
-4 -21 -71 0
5 21 86 0
-5 -21 -86 0
6 21 101 0
-6 -21 -101 0
1 22 27 0
-1 -22 -27 0
2 22 42 0
-2 -22 -42 0
3 22 57 0
-3 -22 -57 0
4 22 72 0
-4 -22 -72 0
5 22 87 0
-5 -22 -87 0
1 23 28 0
-1 -23 -28 0
2 23 43 0
-2 -23 -43 0
3 23 58 0
-3 -23 -58 0
4 23 73 0
-4 -23 -73 0
5 23 88 0
-5 -23 -88 0
1 24 29 0
-1 -24 -29 0
2 24 44 0
-2 -24 -44 0
3 24 59 0
-3 -24 -59 0
4 24 74 0
-4 -24 -74 0
5 24 89 0
-5 -24 -89 0
1 25 30 0
-1 -25 -30 0
2 25 45 0
-2 -25 -45 0
3 25 60 0
-3 -25 -60 0
4 25 75 0
-4 -25 -75 0
5 25 90 0
-5 -25 -90 0
1 26 31 0
-1 -26 -31 0
2 26 46 0
-2 -26 -46 0
3 26 61 0
-3 -26 -61 0
4 26 76 0
-4 -26 -76 0
5 26 91 0
-5 -26 -91 0
1 27 32 0
-1 -27 -32 0
2 27 47 0
-2 -27 -47 0
3 27 62 0
-3 -27 -62 0
4 27 77 0
-4 -27 -77 0
5 27 92 0
-5 -27 -92 0
1 28 33 0
-1 -28 -33 0
2 28 48 0
-2 -28 -48 0
3 28 63 0
-3 -28 -63 0
4 28 78 0
-4 -28 -78 0
5 28 93 0
-5 -28 -93 0
1 29 34 0
-1 -29 -34 0
2 29 49 0
-2 -29 -49 0
3 29 64 0
-3 -29 -64 0
4 29 79 0
-4 -29 -79 0
5 29 94 0
-5 -29 -94 0
1 30 35 0
-1 -30 -35 0
2 30 50 0
-2 -30 -50 0
3 30 65 0
-3 -30 -65 0
4 30 80 0
-4 -30 -80 0
5 30 95 0
-5 -30 -95 0
1 31 36 0
-1 -31 -36 0
2 31 51 0
-2 -31 -51 0
3 31 66 0
-3 -31 -66 0
4 31 81 0
-4 -31 -81 0
5 31 96 0
-5 -31 -96 0
1 32 37 0
-1 -32 -37 0
2 32 52 0
-2 -32 -52 0
3 32 67 0
-3 -32 -67 0
4 32 82 0
-4 -32 -82 0
5 32 97 0
-5 -32 -97 0
1 33 38 0
-1 -33 -38 0
2 33 53 0
-2 -33 -53 0
3 33 68 0
-3 -33 -68 0
4 33 83 0
-4 -33 -83 0
5 33 98 0
-5 -33 -98 0
1 34 39 0
-1 -34 -39 0
2 34 54 0
-2 -34 -54 0
3 34 69 0
-3 -34 -69 0
4 34 84 0
-4 -34 -84 0
5 34 99 0
-5 -34 -99 0
1 35 40 0
-1 -35 -40 0
2 35 55 0
-2 -35 -55 0
3 35 70 0
-3 -35 -70 0
4 35 85 0
-4 -35 -85 0
5 35 100 0
-5 -35 -100 0
1 36 41 0
-1 -36 -41 0
2 36 56 0
-2 -36 -56 0
3 36 71 0
-3 -36 -71 0
4 36 86 0
-4 -36 -86 0
5 36 101 0
-5 -36 -101 0
1 37 42 0
-1 -37 -42 0
2 37 57 0
-2 -37 -57 0
3 37 72 0
-3 -37 -72 0
4 37 87 0
-4 -37 -87 0
1 38 43 0
-1 -38 -43 0
2 38 58 0
-2 -38 -58 0
3 38 73 0
-3 -38 -73 0
4 38 88 0
-4 -38 -88 0
1 39 44 0
-1 -39 -44 0
2 39 59 0
-2 -39 -59 0
3 39 74 0
-3 -39 -74 0
4 39 89 0
-4 -39 -89 0
1 40 45 0
-1 -40 -45 0
2 40 60 0
-2 -40 -60 0
3 40 75 0
-3 -40 -75 0
4 40 90 0
-4 -40 -90 0
1 41 46 0
-1 -41 -46 0
2 41 61 0
-2 -41 -61 0
3 41 76 0
-3 -41 -76 0
4 41 91 0
-4 -41 -91 0
1 42 47 0
-1 -42 -47 0
2 42 62 0
-2 -42 -62 0
3 42 77 0
-3 -42 -77 0
4 42 92 0
-4 -42 -92 0
1 43 48 0
-1 -43 -48 0
2 43 63 0
-2 -43 -63 0
3 43 78 0
-3 -43 -78 0
4 43 93 0
-4 -43 -93 0
1 44 49 0
-1 -44 -49 0
2 44 64 0
-2 -44 -64 0
3 44 79 0
-3 -44 -79 0
4 44 94 0
-4 -44 -94 0
1 45 50 0
-1 -45 -50 0
2 45 65 0
-2 -45 -65 0
3 45 80 0
-3 -45 -80 0
4 45 95 0
-4 -45 -95 0
1 46 51 0
-1 -46 -51 0
2 46 66 0
-2 -46 -66 0
3 46 81 0
-3 -46 -81 0
4 46 96 0
-4 -46 -96 0
1 47 52 0
-1 -47 -52 0
2 47 67 0
-2 -47 -67 0
3 47 82 0
-3 -47 -82 0
4 47 97 0
-4 -47 -97 0
1 48 53 0
-1 -48 -53 0
2 48 68 0
-2 -48 -68 0
3 48 83 0
-3 -48 -83 0
4 48 98 0
-4 -48 -98 0
1 49 54 0
-1 -49 -54 0
2 49 69 0
-2 -49 -69 0
3 49 84 0
-3 -49 -84 0
4 49 99 0
-4 -49 -99 0
1 50 55 0
-1 -50 -55 0
2 50 70 0
-2 -50 -70 0
3 50 85 0
-3 -50 -85 0
4 50 100 0
-4 -50 -100 0
1 51 56 0
-1 -51 -56 0
2 51 71 0
-2 -51 -71 0
3 51 86 0
-3 -51 -86 0
4 51 101 0
-4 -51 -101 0
1 52 57 0
-1 -52 -57 0
2 52 72 0
-2 -52 -72 0
3 52 87 0
-3 -52 -87 0
1 53 58 0
-1 -53 -58 0
2 53 73 0
-2 -53 -73 0
3 53 88 0
-3 -53 -88 0
1 54 59 0
-1 -54 -59 0
2 54 74 0
-2 -54 -74 0
3 54 89 0
-3 -54 -89 0
1 55 60 0
-1 -55 -60 0
2 55 75 0
-2 -55 -75 0
3 55 90 0
-3 -55 -90 0
1 56 61 0
-1 -56 -61 0
2 56 76 0
-2 -56 -76 0
3 56 91 0
-3 -56 -91 0
1 57 62 0
-1 -57 -62 0
2 57 77 0
-2 -57 -77 0
3 57 92 0
-3 -57 -92 0
1 58 63 0
-1 -58 -63 0
2 58 78 0
-2 -58 -78 0
3 58 93 0
-3 -58 -93 0
1 59 64 0
-1 -59 -64 0
2 59 79 0
-2 -59 -79 0
3 59 94 0
-3 -59 -94 0
1 60 65 0
-1 -60 -65 0
2 60 80 0
-2 -60 -80 0
3 60 95 0
-3 -60 -95 0
1 61 66 0
-1 -61 -66 0
2 61 81 0
-2 -61 -81 0
3 61 96 0
-3 -61 -96 0
1 62 67 0
-1 -62 -67 0
2 62 82 0
-2 -62 -82 0
3 62 97 0
-3 -62 -97 0
1 63 68 0
-1 -63 -68 0
2 63 83 0
-2 -63 -83 0
3 63 98 0
-3 -63 -98 0
1 64 69 0
-1 -64 -69 0
2 64 84 0
-2 -64 -84 0
3 64 99 0
-3 -64 -99 0
1 65 70 0
-1 -65 -70 0
2 65 85 0
-2 -65 -85 0
3 65 100 0
-3 -65 -100 0
1 66 71 0
-1 -66 -71 0
2 66 86 0
-2 -66 -86 0
3 66 101 0
-3 -66 -101 0
1 67 72 0
-1 -67 -72 0
2 67 87 0
-2 -67 -87 0
1 68 73 0
-1 -68 -73 0
2 68 88 0
-2 -68 -88 0
1 69 74 0
-1 -69 -74 0
2 69 89 0
-2 -69 -89 0
1 70 75 0
-1 -70 -75 0
2 70 90 0
-2 -70 -90 0
1 71 76 0
-1 -71 -76 0
2 71 91 0
-2 -71 -91 0
1 72 77 0
-1 -72 -77 0
2 72 92 0
-2 -72 -92 0
1 73 78 0
-1 -73 -78 0
2 73 93 0
-2 -73 -93 0
1 74 79 0
-1 -74 -79 0
2 74 94 0
-2 -74 -94 0
1 75 80 0
-1 -75 -80 0
2 75 95 0
-2 -75 -95 0
1 76 81 0
-1 -76 -81 0
2 76 96 0
-2 -76 -96 0
1 77 82 0
-1 -77 -82 0
2 77 97 0
-2 -77 -97 0
1 78 83 0
-1 -78 -83 0
2 78 98 0
-2 -78 -98 0
1 79 84 0
-1 -79 -84 0
2 79 99 0
-2 -79 -99 0
1 80 85 0
-1 -80 -85 0
2 80 100 0
-2 -80 -100 0
1 81 86 0
-1 -81 -86 0
2 81 101 0
-2 -81 -101 0
1 82 87 0
-1 -82 -87 0
1 83 88 0
-1 -83 -88 0
1 84 89 0
-1 -84 -89 0
1 85 90 0
-1 -85 -90 0
1 86 91 0
-1 -86 -91 0
1 87 92 0
-1 -87 -92 0
1 88 93 0
-1 -88 -93 0
1 89 94 0
-1 -89 -94 0
1 90 95 0
-1 -90 -95 0
1 91 96 0
-1 -91 -96 0
1 92 97 0
-1 -92 -97 0
1 93 98 0
-1 -93 -98 0
1 94 99 0
-1 -94 -99 0
1 95 100 0
-1 -95 -100 0
1 96 101 0
-1 -96 -101 0
