certificates/rado_a15_c10_N101.drat
-96 -101 0
d -96 -1 -101 0
16 21 96 0
-6 -101 0
-101 0
96 0
6 0
-1 0
-86 0
-16 0
91 0
81 0
21 0
11 0
0
